20200123 268440.87 259621.49
20171231 264300.00 255900.00
20170630 264330.87 254435.47
20161231 264330.87 253104.35
20160630 264330.87 251846.20
20160603 264330.87 251846.20
20150630 176220.58 167890.29
